
Gurobi 11.0.0 (win64) logging started Mon May 13 17:29:54 2024

Set parameter LogFile to value "./Results/StripPacking-BranchingRuleRuns/Logs/RUb-010-StripPacking-10.log"
Set parameter TimeLimit to value 10800
Set parameter Cuts to value 0
Set parameter Presolve to value 1
Set parameter Heuristics to value 0
Set parameter LPWarmStart to value 2

Gurobi 11.0.0 (win64) logging started Mon May 13 17:32:03 2024

Set parameter LogFile to value "./Results/StripPacking-BranchingRuleRuns/Logs/RUb-010-StripPacking-10.log"
Set parameter TimeLimit to value 10800
Set parameter Cuts to value 0
Set parameter Presolve to value 1
Set parameter Heuristics to value 0
Set parameter LPWarmStart to value 2
Gurobi Optimizer version 11.0.0 build v11.0.0rc2 (win64 - Windows 10.0 (19045.2))

CPU model: Intel(R) Core(TM) i9-10980XE CPU @ 3.00GHz, instruction set [SSE2|AVX|AVX2|AVX512]
Thread count: 18 physical cores, 36 logical processors, using up to 18 threads

Optimize a model with 685 rows, 201 columns and 1820 nonzeros
Model fingerprint: 0x738c4aa2
Variable types: 21 continuous, 180 integer (180 binary)
Coefficient statistics:
  Matrix range     [1e+00, 1e+04]
  Objective range  [1e+00, 1e+00]
  Bounds range     [1e+00, 1e+04]
  RHS range        [1e+00, 1e+04]
Using branch priorities.

Warning: Completing partial solution with 180 unfixed non-continuous variables out of 180
User MIP start produced solution with objective 50 (0.01s)
Loaded user MIP start with objective 50

Presolve removed 128 rows and 22 columns
Presolve time: 0.00s
Presolved: 557 rows, 179 columns, 1724 nonzeros
Variable types: 21 continuous, 158 integer (158 binary)

Root relaxation: objective 3.500000e+01, 173 iterations, 0.00 seconds (0.00 work units)

    Nodes    |    Current Node    |     Objective Bounds      |     Work
 Expl Unexpl |  Obj  Depth IntInf | Incumbent    BestBd   Gap | It/Node Time

     0     0   35.00000    0    4   50.00000   35.00000  30.0%     -    0s
     0     0   35.00000    0    4   50.00000   35.00000  30.0%     -    0s
     0     2   35.00000    0    4   50.00000   35.00000  30.0%     -    0s
*  472   382              23      46.0000000   35.00000  23.9%  13.6    0s
*  879   483              33      45.0000000   35.00000  22.2%  12.4    0s
*  911   483              33      44.0000000   35.00000  20.5%  12.3    0s
*  944   483              26      42.0000000   35.00000  16.7%  12.3    0s
* 2098   569              26      41.0000000   35.00000  14.6%   9.5    0s
* 4565   853              26      39.0000000   38.00000  2.56%   8.1    0s

Explored 12247 nodes (77327 simplex iterations) in 1.04 seconds (0.22 work units)
Thread count was 18 (of 36 available processors)

Solution count 7: 39 41 42 ... 50

Optimal solution found (tolerance 1.00e-04)
Best objective 3.900000000000e+01, best bound 3.900000000000e+01, gap 0.0000%

Gurobi 11.0.0 (win64) logging started Mon May 13 17:34:32 2024

Set parameter LogFile to value "./Results/StripPacking-BranchingRuleRuns/Logs/RUb-010-StripPacking-10.log"
Set parameter TimeLimit to value 10800
Set parameter Cuts to value 0
Set parameter Presolve to value 1
Set parameter Heuristics to value 0
Set parameter LPWarmStart to value 2
Gurobi Optimizer version 11.0.0 build v11.0.0rc2 (win64 - Windows 10.0 (19045.2))

CPU model: Intel(R) Core(TM) i9-10980XE CPU @ 3.00GHz, instruction set [SSE2|AVX|AVX2|AVX512]
Thread count: 18 physical cores, 36 logical processors, using up to 18 threads

Optimize a model with 685 rows, 201 columns and 1820 nonzeros
Model fingerprint: 0x738c4aa2
Variable types: 21 continuous, 180 integer (180 binary)
Coefficient statistics:
  Matrix range     [1e+00, 1e+04]
  Objective range  [1e+00, 1e+00]
  Bounds range     [1e+00, 1e+04]
  RHS range        [1e+00, 1e+04]
Using branch priorities.

Warning: Completing partial solution with 180 unfixed non-continuous variables out of 180
User MIP start produced solution with objective 50 (0.00s)
Loaded user MIP start with objective 50

Presolve removed 128 rows and 22 columns
Presolve time: 0.02s
Presolved: 557 rows, 179 columns, 1724 nonzeros
Variable types: 21 continuous, 158 integer (158 binary)

Root relaxation: objective 3.500000e+01, 173 iterations, 0.00 seconds (0.00 work units)

    Nodes    |    Current Node    |     Objective Bounds      |     Work
 Expl Unexpl |  Obj  Depth IntInf | Incumbent    BestBd   Gap | It/Node Time

     0     0   35.00000    0    4   50.00000   35.00000  30.0%     -    0s
     0     0   35.00000    0    4   50.00000   35.00000  30.0%     -    0s
     0     2   35.00000    0    4   50.00000   35.00000  30.0%     -    0s
*  472   382              23      46.0000000   35.00000  23.9%  13.6    0s
*  879   483              33      45.0000000   35.00000  22.2%  12.4    0s
*  911   483              33      44.0000000   35.00000  20.5%  12.3    0s
*  944   483              26      42.0000000   35.00000  16.7%  12.3    0s
* 2098   569              26      41.0000000   35.00000  14.6%   9.5    0s
* 4565   853              26      39.0000000   38.00000  2.56%   8.1    0s

Explored 12247 nodes (77327 simplex iterations) in 0.31 seconds (0.22 work units)
Thread count was 18 (of 36 available processors)

Solution count 7: 39 41 42 ... 50

Optimal solution found (tolerance 1.00e-04)
Best objective 3.900000000000e+01, best bound 3.900000000000e+01, gap 0.0000%
